Traveling Salesman Problem/TSP_generados/Aleatorio1621103451_14.tsp
NAME: Aleatorio1621103451_14.tsp
COMMENT: Randomly generated scenario
TYPE: TSP
DIMENSION: 14
EDGE_WEIGHT_TYPE: ATT
NODE_COORD_SECTION
1 17.35 47.19
2 43.42 10.47
3 2.74 46.05
4 11.25 6.6
5 43.51 18.74
6 12.64 39.75
7 8.18 35.71
8 11.75 29.57
9 10.59 37.62
10 27.24 13.31
11 32.98 11.43
12 37.38 40.14
13 36.13 35.39
14 23.63 29.12
