Traveling Salesman Problem/TSP_generados/Aleatorio1621103451_14.opt.tour
NAME: Aleatorio1621103451_14.opt.tour
COMMENT: Optimal solution for Aleatorio1621103451_14 (163.60367271183776)
TYPE: TOUR
DIMENSION: 14
TOUR_SECTION
1 3 6 9 7 8 14 4 10 11 2 5 13 12
-1
EOF
